log             log.HtBDC_Cu110 append
units           real
atom_style      full
boundary        p p p

pair_style      lj/cut/coul/long 12.500
bond_style      harmonic
angle_style     hybrid cosine/periodic fourier
dihedral_style  harmonic
improper_style  fourier
kspace_style    ewald 0.000001

special_bonds   lj/coul 0.0 0.0 1.0
dielectric      1.0
pair_modify     tail yes mix arithmetic
box tilt        large
read_data       data.HtBDC_Cu110

#### Atom Groupings ####
group           surf     id   1:1400
group           mol      id   1401:1526
#### END Atom Groupings ####

#### Delete Cu surface topology and interactions
delete_bonds    surf multi remove
pair_coeff      1 1 1.0 0.0

# Modify surf - mol interactions
variable        eps_CuC equal 50*sqrt(0.005*0.105)
variable        eps_CuH equal 50*sqrt(0.005*0.044)
variable        sig_CuC equal (3.113691+3.430851)/2
variable        sig_CuH equal (3.113691+2.571134)/2
pair_coeff      1 2 ${eps_CuC} ${sig_CuC}
pair_coeff      1 3 ${eps_CuH} ${sig_CuH}
pair_coeff      1 4 ${eps_CuC} ${sig_CuC}

### Calculate center of mass of the molecule
compute         C1 mol com

#### Simulation Parameters ####
variable        seed equal 123456
variable        T equal 200
thermo          5000
thermo_style    custom step temp press etotal epair emol fmax fnorm c_C1[1] c_C1[2] c_C1[3]
velocity        mol create $T ${seed} dist uniform

### Constrained NVT
fix             RIG mol rigid/nvt single temp $T $T 100
fix             SPRNG mol spring tether 15.00 21.5820 22.8912 NULL 0.00
run             5000000
unfix           RIG
